0001 18
0002 13
0003 19
0004 15
0005 9
0006 22
0007 23
0008 2
0009 6
0010 14
0011 8
0012 3
0013 15
0014 9
0015 11
0016 4
0017 19
0018 1
0019 7
0020 19
0021 17
0022 18
0023 1
0024 21
0025 12
0026 16
0027 10
0028 1
0029 7
0030 4
0031 1
0032 21
0033 23
0034 13
0035 9
0036 19
0037 13
0038 5
0039 11
0040 13
0041 19
0042 1
0043 4
0044 6
0045 22
0046 17
0047 3
0048 22
0049 23
0050 23
0051 22
0052 22
0053 18
0054 21
0055 11
0056 21
0057 23
0058 19
0059 5
0060 16
0061 19
0062 1
0063 13
0064 17
0065 19
0066 1
0067 18
0068 23
0069 19
0070 9
0071 4
0072 10
0073 22
0074 23
0075 5
0076 1
0077 13
0078 11
0079 21
0080 22
0081 9
0082 3
0083 9
0084 1
0085 19
0086 17
0087 6
0088 20
0089 1
0090 22
0091 14
0092 12
0093 4
0094 13
0095 20
0096 20
0097 11
0098 19
0099 9
0100 17
0101 2
0102 3
0103 22
0104 13
0105 12
0106 10
0107 18
0108 15
0109 16
0110 8
0111 20
0112 4
0113 11
0114 16
0115 15
0116 21
0117 2
0118 12
0119 7
0120 5
0121 12
0122 5
0123 17
0124 10
0125 19
0126 6
0127 23
0128 13
0129 18
0130 6
0131 8
0132 3
0133 10
0134 7
0135 14
0136 12
0137 2
0138 6
0139 19
0140 16
0141 10
0142 13
0143 5
0144 18
0145 8
0146 21
0147 6
0148 23
0149 1
0150 14
0151 8
0152 2
0153 6
0154 11
0155 8
0156 19
0157 20
0158 5
0159 23
0160 13
0161 11
0162 6
0163 21
0164 9
0165 7
0166 7
0167 5
0168 7
0169 3
0170 15
0171 1
0172 23
0173 5
0174 17
0175 8
0176 15
0177 1
0178 5
0179 20
0180 3
0181 21
0182 19
0183 13
0184 17
0185 1
0186 1
0187 21
0188 4
0189 19
0190 12
0191 13
0192 7
0193 7
0194 1
0195 6
0196 13
0197 19
0198 8
0199 18
0200 20
0201 17
0202 14
0203 21
0204 12
0205 16
0206 18
0207 15
0208 4
0209 9
0210 10
0211 7
0212 2
0213 13
0214 14
0215 14
0216 14
0217 12
0218 21
0219 17
0220 1
0221 3
0222 6
0223 13
0224 4
0225 19
0226 10
0227 8
0228 19
0229 2
0230 22
0231 16
0232 16
0233 16
0234 12
0235 23
0236 4
0237 6
0238 15
0239 23
0240 12
0241 17
0242 10
0243 8
0244 5
0245 21
0246 3
0247 6
0248 12
0249 9
0250 16
0251 14
0252 18
0253 20
0254 4
0255 11
0256 2
0257 3
0258 11
0259 1
0260 7
0261 23
